21:04:50 | INFO    | Run started | run_id: MR_MV_WT_case3_P10_R3_eps9999 | log file: C:\Users\Asus\Documents\GitHub\logistics-model2\internal-logistics-model2\results\MR_MV_WT\case3\MR_MV_WT_case3_P10_R3_eps9999_2026_05_04_21_04.log
21:04:50 | INFO    | Products loaded | sheet=case3 | rows=10
21:04:50 | INFO    | Data loaded | |N|=26 |Nw|=25 |K|=3 |R|=3 |P|=10 | U=25
21:04:50 | INFO    | Big-M | time=491.0 precedence=480.0 wait=465.0 load_lb=20 load_ub=20
21:04:50 | INFO    | Set parameter Username
21:04:50 | INFO    | Set parameter LicenseID to value 2811848
21:04:50 | INFO    | Academic license - for non-commercial use only - expires 2027-04-22
21:04:50 | INFO    | Objective set | primary: min total_wait | tie-break weight on route_duration: 0.001
21:04:50 | INFO    | Constraint (3) added | route_duration <= 9999
21:04:50 | INFO    | Constraints (4)-(9) added | route structure
21:04:50 | INFO    | Constraints (10)-(12) added | product assignment
21:04:50 | INFO    | Constraints (13)-(15) added | route timing
21:04:50 | INFO    | Constraints (16) added | time consistency
21:04:50 | INFO    | Constraints (17)-(19) added | service times
21:04:50 | INFO    | Constraints (20)-(22) added | precedence, route closure, waiting
21:04:50 | INFO    | Constraints (23)-(27) added | load propagation
21:04:51 | INFO    | Constraints (28)-(32) added | MTZ and route ordering
21:04:51 | INFO    | Set parameter TimeLimit to value 600
21:04:51 | INFO    | Set parameter MIPGap to value 0.01
21:04:51 | INFO    | Set parameter Presolve to value 2
21:04:51 | INFO    | Set parameter LogFile to value "C:\Users\Asus\Documents\GitHub\logistics-model2\internal-logistics-model2\results\MR_MV_WT\case3\result_MR_MV_WT_case3_P10_R3_eps9999_2026_05_04_21_04.log"
21:04:51 | INFO    | Solver configured | TimeLimit=600s | MIPGap=0.01 | gurobi_log=C:\Users\Asus\Documents\GitHub\logistics-model2\internal-logistics-model2\results\MR_MV_WT\case3\result_MR_MV_WT_case3_P10_R3_eps9999_2026_05_04_21_04.log
21:04:51 | INFO    | Optimization starting...
21:04:51 | INFO    | Gurobi Optimizer version 12.0.0 build v12.0.0rc1 (win64 - Windows 10.0 (19045.2))
21:04:51 | INFO    | 
21:04:51 | INFO    | CPU model: 12th Gen Intel(R) Core(TM) i7-12650H, instruction set [SSE2|AVX|AVX2]
21:04:51 | INFO    | Thread count: 10 physical cores, 16 logical processors, using up to 16 threads
21:04:51 | INFO    | 
21:04:51 | INFO    | Non-default parameters:
21:04:51 | INFO    | TimeLimit  600
21:04:51 | INFO    | MIPGap  0.01
21:04:51 | INFO    | Presolve  2
21:04:51 | INFO    | 
21:04:51 | INFO    | Optimize a model with 24692 rows, 7327 columns and 125772 nonzeros
21:04:51 | INFO    | Model fingerprint: 0x613bb119
21:04:51 | INFO    | Variable types: 1162 continuous, 6165 integer (5940 binary)
21:04:51 | INFO    | Coefficient statistics:
21:04:51 | INFO    |   Matrix range     [1e+00, 5e+02]
21:04:51 | INFO    |   Objective range  [1e-03, 1e+00]
21:04:51 | INFO    |   Bounds range     [1e+00, 3e+01]
21:04:51 | INFO    |   RHS range        [1e+00, 1e+04]
21:04:51 | INFO    | Presolve removed 21201 rows and 6186 columns
21:04:51 | INFO    | Presolve time: 0.07s
21:04:51 | INFO    | Presolved: 3491 rows, 1141 columns, 19644 nonzeros
21:04:51 | INFO    | Variable types: 340 continuous, 801 integer (729 binary)
21:04:51 | INFO    | Root relaxation presolve removed 33 rows and 0 columns
21:04:51 | INFO    | Root relaxation presolved: 3458 rows, 1165 columns, 19452 nonzeros
21:04:51 | INFO    | 
21:04:51 | INFO    | 
21:04:51 | INFO    | Root relaxation: objective 0.000000e+00, 350 iterations, 0.02 seconds (0.03 work units)
21:04:51 | INFO    | 
21:04:51 | INFO    |     Nodes    |    Current Node    |     Objective Bounds      |     Work
21:04:51 | INFO    |  Expl Unexpl |  Obj  Depth IntInf | Incumbent    BestBd   Gap | It/Node Time
21:04:51 | INFO    | 
21:04:51 | INFO    |      0     0    0.00000    0   52          -    0.00000      -     -    0s
21:04:51 | INFO    |      0     0    0.00000    0   78          -    0.00000      -     -    0s
21:04:51 | INFO    |      0     0    0.00000    0   85          -    0.00000      -     -    0s
21:04:51 | INFO    |      0     0    0.00000    0   60          -    0.00000      -     -    0s
21:04:51 | INFO    |      0     0    0.00000    0   61          -    0.00000      -     -    0s
21:04:51 | INFO    | H    0     0                    104542.99900    0.00000   100%     -    0s
21:04:51 | INFO    |      0     0    0.03024    0   77 104542.999    0.03024   100%     -    0s
21:04:51 | INFO    | H    0     0                     134.2030000    0.32759   100%     -    0s
21:04:51 | INFO    |      0     0    0.32759    0   73  134.20300    0.32759   100%     -    0s
21:04:51 | INFO    |      0     0   16.67609    0  130  134.20300   16.67609  87.6%     -    0s
21:04:51 | INFO    |      0     0   16.67707    0  118  134.20300   16.67707  87.6%     -    0s
21:04:51 | INFO    |      0     0   28.50000    0  119  134.20300   28.50000  78.8%     -    0s
21:04:51 | INFO    |      0     0   28.50000    0   92  134.20300   28.50000  78.8%     -    0s
21:04:51 | INFO    |      0     0   30.00000    0  158  134.20300   30.00000  77.6%     -    0s
21:04:51 | INFO    |      0     0   30.00000    0  148  134.20300   30.00000  77.6%     -    0s
21:04:51 | INFO    |      0     0   30.00000    0  126  134.20300   30.00000  77.6%     -    0s
21:04:51 | INFO    |      0     0   30.00000    0  110  134.20300   30.00000  77.6%     -    0s
21:04:52 | INFO    |      0     0   30.00000    0   90  134.20300   30.00000  77.6%     -    0s
21:04:52 | INFO    |      0     0   30.00000    0   87  134.20300   30.00000  77.6%     -    0s
21:04:52 | INFO    |      0     0   30.00000    0   75  134.20300   30.00000  77.6%     -    1s
21:04:52 | INFO    |      0     0   30.00000    0   61  134.20300   30.00000  77.6%     -    1s
21:04:52 | INFO    |      0     0   30.00000    0   61  134.20300   30.00000  77.6%     -    1s
21:04:52 | INFO    |      0     0   30.00000    0   72  134.20300   30.00000  77.6%     -    1s
21:04:52 | INFO    |      0     0   30.00000    0   79  134.20300   30.00000  77.6%     -    1s
21:04:52 | INFO    |      0     0   30.00000    0   78  134.20300   30.00000  77.6%     -    1s
21:04:52 | INFO    |      0     0   30.00000    0   71  134.20300   30.00000  77.6%     -    1s
21:04:52 | INFO    |      0     0   30.00000    0   71  134.20300   30.00000  77.6%     -    1s
21:04:52 | INFO    |      0     2   30.00000    0   71  134.20300   30.00000  77.6%     -    1s
21:04:52 | INFO    | H   50    52                     131.2030000   30.00000  77.1%   246    1s
21:04:52 | INFO    | H  116   171                     129.2030000   30.00000  76.8%   176    1s
21:04:53 | INFO    | H  509   716                     125.2070000   30.00000  76.0%  88.8    2s
21:04:53 | INFO    | H 1153   760                     116.2040000   30.00000  74.2%  58.8    2s
21:04:53 | INFO    | H 1470   902                     109.1970000   30.00000  72.5%  57.0    2s
21:04:56 | INFO    |   2546  1428   47.00900   19   65  109.19700   30.00000  72.5%  53.7    5s
21:04:59 | INFO    | H 2745  1521                     106.2100000   30.00000  71.8%  83.7    8s
21:05:01 | INFO    |   3304  1756   30.00060   35   67  106.21000   30.00000  71.8%  94.0   10s
21:05:02 | INFO    | H 3589  1614                     106.1940000   30.00000  71.7%  97.5   11s
21:05:03 | INFO    | H 4039  1715                      94.1820000   30.00000  68.1%   103   12s
21:05:06 | INFO    |   5556  2151   35.87234   29  102   94.18200   30.00000  68.1%   116   15s
21:05:08 | INFO    | H 6805  2171                      85.2040000   30.00000  64.8%   119   17s
21:05:11 | INFO    |   6979  2358   67.40255   30   79   85.20400   30.00000  64.8%   120   20s
21:05:16 | INFO    |   9587  3421   30.00016   26  105   85.20400   30.00000  64.8%   127   25s
21:05:21 | INFO    |  11049  3839 infeasible   24        85.20400   30.00000  64.8%   130   30s
21:05:27 | INFO    |  13089  5015 infeasible   33        85.20400   30.00000  64.8%   132   36s
21:05:31 | INFO    |  15274  5938   36.10100   32   83   85.20400   30.00000  64.8%   134   40s
21:05:36 | INFO    |  18084  7190   62.01413   27   85   85.20400   30.00000  64.8%   136   45s
21:05:43 | INFO    |  19798  7568   30.55697   68  104   85.20400   30.00000  64.8%   138   52s
21:05:48 | INFO    |  20900  8360 infeasible   29        85.20400   30.00000  64.8%   138   57s
21:05:52 | INFO    |  22606  9056   57.00000   29   68   85.20400   30.00000  64.8%   139   61s
21:05:57 | INFO    |  23555  9109   37.89634   35   96   85.20400   30.00000  64.8%   140   66s
21:06:01 | INFO    |  23938  9475   41.91391   37   75   85.20400   30.00000  64.8%   140   70s
21:06:06 | INFO    |  25241 10174   30.52595   27   73   85.20400   30.00000  64.8%   141   75s
21:06:12 | INFO    |  27914 10977   47.06700   43   69   85.20400   30.00000  64.8%   141   81s
21:06:16 | INFO    |  28975 11437   30.00008   66   89   85.20400   30.00000  64.8%   141   85s
21:06:22 | INFO    |  30695 11797   66.07724   40   65   85.20400   30.00000  64.8%   142   91s
21:06:26 | INFO    |  31220 12209   32.86924   37   71   85.20400   30.00000  64.8%   142   95s
21:06:37 | INFO    |  33681 13709   30.00014   22  108   85.20400   30.00000  64.8%   144  106s
21:06:45 | INFO    |  35354 14340   59.00091   68   91   85.20400   30.00000  64.8%   144  114s
21:06:49 | INFO    |  36762 14997   56.37772   40   47   85.20400   30.00000  64.8%   145  118s
21:06:53 | INFO    |  38476 15711   30.00019   33   85   85.20400   30.00000  64.8%   145  122s
21:06:57 | INFO    |  40284 16341   35.41107   31   91   85.20400   30.00000  64.8%   146  126s
21:07:08 | INFO    |  42089 17076     cutoff   53        85.20400   30.00000  64.8%   146  137s
21:07:12 | INFO    |  44148 17563   30.00008   27  102   85.20400   30.00000  64.8%   147  141s
21:07:16 | INFO    |  45381 18354 infeasible   62        85.20400   30.00000  64.8%   148  145s
21:07:24 | INFO    |  48876 19653 infeasible   27        85.20400   30.00000  64.8%   149  153s
21:07:28 | INFO    |  50561 20402   32.74876   62   85   85.20400   30.00000  64.8%   149  157s
21:07:33 | INFO    |  52207 20974   30.17334   62   87   85.20400   30.00000  64.8%   149  161s
21:07:37 | INFO    |  53629 21031   30.00150   44   64   85.20400   30.00000  64.8%   150  166s
21:07:44 | INFO    |  53919 21362   30.00087   30  106   85.20400   30.00000  64.8%   150  173s
21:07:48 | INFO    |  54628 21767   30.00828   31   99   85.20400   30.00000  64.8%   150  177s
21:07:53 | INFO    |  55658 22465   30.00961   32   94   85.20400   30.00000  64.8%   150  182s
21:07:58 | INFO    |  57262 23215   30.01852   33   92   85.20400   30.00000  64.8%   150  187s
21:08:04 | INFO    |  58938 23596   30.00294   54  122   85.20400   30.00000  64.8%   151  193s
21:08:09 | INFO    |  59999 24297   32.36888   57   93   85.20400   30.00000  64.8%   151  198s
21:08:15 | INFO    |  61758 24967   32.33916   47   71   85.20400   30.00000  64.8%   151  204s
21:08:20 | INFO    |  63550 25752   33.06286   62  103   85.20400   30.00000  64.8%   152  209s
21:08:25 | INFO    |  65291 26479   75.11100   74   65   85.20400   30.00000  64.8%   152  214s
21:08:30 | INFO    |  67040 27026   50.07000   63   60   85.20400   30.00000  64.8%   153  219s
21:08:35 | INFO    |  68734 27691 infeasible   49        85.20400   30.00000  64.8%   153  224s
21:08:40 | INFO    |  70377 28276   30.06700   44   66   85.20400   30.00000  64.8%   153  229s
21:08:45 | INFO    |  71916 28948     cutoff   54        85.20400   30.00000  64.8%   154  234s
21:08:50 | INFO    |  73720 29271   36.51857   52   94   85.20400   30.00000  64.8%   154  239s
21:08:56 | INFO    |  74588 29979   41.71927   42   75   85.20400   30.00000  64.8%   154  245s
21:09:01 | INFO    |  76291 30720   70.22004   48   95   85.20400   30.00000  64.8%   154  250s
21:09:06 | INFO    |  77947 31504   44.94704   50   88   85.20400   30.00000  64.8%   155  255s
21:09:11 | INFO    |  79648 32223   30.05900   59   77   85.20400   30.00000  64.8%   155  260s
21:09:17 | INFO    |  81346 32945   30.02025   65  105   85.20400   30.00000  64.8%   155  265s
21:09:22 | INFO    |  83147 33621   30.00026   44  109   85.20400   30.00000  64.8%   155  271s
21:09:28 | INFO    |  84719 34061   34.50847   40   80   85.20400   30.00000  64.8%   155  276s
21:09:37 | INFO    |  85626 35144   34.50949   41   99   85.20400   30.00000  64.8%   155  286s
21:09:43 | INFO    |  88151 35177 infeasible   33        85.20400   30.00000  64.8%   155  292s
21:09:50 | INFO    |  88279 35500   30.00012   34  110   85.20400   30.00000  64.8%   155  298s
21:09:57 | INFO    |  89159 36244   30.00012   35  122   85.20400   30.00000  64.8%   155  306s
21:10:05 | INFO    |  90761 37184   73.00198   36   77   85.20400   30.00000  64.8%   155  314s
21:10:14 | INFO    |  93053 38085   30.00000   43  104   85.20400   30.00000  64.8%   155  323s
21:10:22 | INFO    |  94935 39189 infeasible   50        85.20400   30.00000  64.8%   156  331s
21:10:29 | INFO    |  97411 40086   51.06300   65  110   85.20400   30.00000  64.8%   156  338s
21:10:36 | INFO    |  99408 40206   30.00000   46   66   85.20400   30.00000  64.8%   156  345s
21:10:43 | INFO    |  99690 40711   30.00013   47  109   85.20400   30.00000  64.8%   156  352s
21:10:51 | INFO    |  100929 41678   54.88059   88   65   85.20400   30.00000  64.8%   156  360s
21:10:58 | INFO    |  103288 42609     cutoff   48        85.20400   30.00000  64.8%   156  367s
21:11:06 | INFO    |  105379 43133   45.00000   50   74   85.20400   30.00000  64.8%   156  375s
21:11:14 | INFO    |  106640 43971   75.05741   33   56   85.20400   30.00000  64.8%   156  383s
21:11:21 | INFO    |  108722 44954   30.41803   40   92   85.20400   30.00000  64.8%   156  390s
21:11:28 | INFO    |  110837 45656   30.00168   51  101   85.20400   30.00000  64.8%   156  397s
21:11:34 | INFO    |  112388 46320   46.00000   52  109   85.20400   30.00000  64.8%   157  403s
21:11:40 | INFO    |  114074 46550   45.00107   57  115   85.20400   30.00000  64.8%   157  409s
21:11:46 | INFO    |  114574 46983     cutoff   87        85.20400   30.00000  64.8%   157  415s
21:11:54 | INFO    |  115620 47539   30.00000   52   97   85.20400   30.00000  64.8%   157  422s
21:12:00 | INFO    |  117052 48338   30.00114   44  133   85.20400   30.00000  64.8%   157  429s
21:12:08 | INFO    |  119100 48989   32.70485   69   82   85.20400   30.00000  64.8%   157  437s
21:12:15 | INFO    |  120756 49821   30.00013   74  118   85.20400   30.00000  64.8%   158  444s
21:12:22 | INFO    |  122512 50565     cutoff   55        85.20400   30.00000  64.8%   158  450s
21:12:29 | INFO    |  124364 51264   30.00000   43   53   85.20400   30.00000  64.8%   158  458s
21:12:35 | INFO    |  126176 51950 infeasible   58        85.20400   30.00000  64.8%   158  464s
21:12:42 | INFO    |  127918 52660   46.00000   33   68   85.20400   30.00000  64.8%   158  471s
21:12:49 | INFO    |  129531 53049   66.04367   95   86   85.20400   30.00000  64.8%   158  478s
21:12:56 | INFO    |  130577 53714   84.15019   75   62   85.20400   30.00000  64.8%   158  485s
21:13:02 | INFO    |  132373 53797   44.57719   40  123   85.20400   30.00000  64.8%   158  491s
21:13:09 | INFO    |  132631 54275   44.57719   41  108   85.20400   30.00000  64.8%   158  498s
21:13:17 | INFO    |  133918 55047   30.60645   54  121   85.20400   30.00000  64.8%   158  506s
21:13:24 | INFO    |  135810 55789 infeasible   56        85.20400   30.00000  64.8%   158  513s
21:13:31 | INFO    |  137727 56476   30.00000   38   82   85.20400   30.00000  64.8%   158  520s
21:13:38 | INFO    |  139561 56670   32.04667   42   78   85.20400   30.00000  64.8%   158  527s
21:13:45 | INFO    |  140022 57283   32.04667   43   87   85.20400   30.00000  64.8%   158  534s
21:13:53 | INFO    |  141451 57912   34.05956   47   82   85.20400   30.00000  64.8%   158  542s
21:14:01 | INFO    |  143281 58189 infeasible   64        85.20400   30.00000  64.8%   158  550s
21:14:08 | INFO    |  144027 58973   30.01967   50   78   85.20400   30.00000  64.8%   158  557s
21:14:16 | INFO    |  145688 59822   32.80790  101   56   85.20400   30.00000  64.8%   158  565s
21:14:23 | INFO    |  147651 60484   30.00000   73   87   85.20400   30.00000  64.8%   159  572s
21:14:30 | INFO    |  149412 61135   50.00789   85  114   85.20400   30.00000  64.8%   159  579s
21:14:37 | INFO    |  151026 61753 infeasible   89        85.20400   30.00000  64.8%   159  586s
21:14:44 | INFO    |  152548 62044   30.02022   44   86   85.20400   30.00000  64.8%   159  593s
21:14:51 | INFO    |  153489 62471   31.25268   50  108   85.20400   30.00000  64.8%   159  600s
21:14:51 | INFO    | 
21:14:51 | INFO    | Cutting planes:
21:14:51 | INFO    |   Learned: 287
21:14:51 | INFO    |   Gomory: 27
21:14:51 | INFO    |   Cover: 497
21:14:51 | INFO    |   Implied bound: 945
21:14:51 | INFO    |   Projected implied bound: 29
21:14:51 | INFO    |   Clique: 16
21:14:51 | INFO    |   MIR: 2575
21:14:51 | INFO    |   Mixing: 193
21:14:51 | INFO    |   StrongCG: 138
21:14:51 | INFO    |   Flow cover: 10575
21:14:51 | INFO    |   Inf proof: 196
21:14:51 | INFO    |   Zero half: 45
21:14:51 | INFO    |   RLT: 427
21:14:51 | INFO    |   Relax-and-lift: 170
21:14:51 | INFO    |   PSD: 1
21:14:51 | INFO    | 
21:14:51 | INFO    | Explored 154918 nodes (24646151 simplex iterations) in 600.31 seconds (464.68 work units)
21:14:51 | INFO    | Thread count was 16 (of 16 available processors)
21:14:51 | INFO    | 
21:14:51 | INFO    | Solution count 10: 85.204 94.182 106.194 ... 134.203
21:14:51 | INFO    | 
21:14:51 | INFO    | Time limit reached
21:14:51 | INFO    | Best objective 8.520400000000e+01, best bound 2.999999999897e+01, gap 64.7904%
21:14:51 | INFO    | Solution found | total_wait=85.00 | route_duration=204.00
21:14:51 | INFO    | Objective=85.20 | runtime=600.31s | MIP Gap=64.79%
21:14:51 | INFO    | Generating Excel output | C:\Users\Asus\Documents\GitHub\logistics-model2\internal-logistics-model2\results\MR_MV_WT\case3\result_MR_MV_WT_case3_P10_R3_eps9999_2026_05_04_21_04.xlsx
21:14:51 | INFO    | Excel output written | 12 sheets | C:\Users\Asus\Documents\GitHub\logistics-model2\internal-logistics-model2\results\MR_MV_WT\case3\result_MR_MV_WT_case3_P10_R3_eps9999_2026_05_04_21_04.xlsx
21:14:51 | INFO    | Master Pareto updated | 19 total rows | C:\Users\Asus\Documents\GitHub\logistics-model2\internal-logistics-model2\results\master_pareto.xlsx
21:14:51 | INFO    | Run complete | run_id=MR_MV_WT_case3_P10_R3_eps9999
